data/lp_files/pEFS/84_1.lp
\ Model foo
\ LP format - for model browsing. Use MPS format to capture full model detail.
Minimize
  z
Subject To
 allocateEach[1]: x[1,1] + x[2,1] + x[3,1] + x[4,1] + x[5,1] = 1
 allocateEach[2]: x[1,2] + x[2,2] + x[3,2] + x[4,2] + x[5,2] = 1
 allocateEach[3]: x[1,3] + x[2,3] + x[3,3] + x[4,3] + x[5,3] = 1
 allocateEach[4]: x[1,4] + x[2,4] + x[3,4] + x[4,4] + x[5,4] = 1
 allocateAllCash: cashProportion[1] + cashProportion[2] + cashProportion[3]
   + cashProportion[4] + cashProportion[5] = 1
 findWorstP[1,2]: z + 0.0555586421467859 cashProportion[1]
   - 0.0555586421467859 cashProportion[2] + 0.00350019445524751 x[1,1]
   + 0.3729096060892271 x[1,2] + 0.2961275626423689 x[1,3]
   + 0.2719039946663703 x[1,4] - 0.00350019445524751 x[2,1]
   - 0.3729096060892271 x[2,2] - 0.2961275626423689 x[2,3]
   - 0.2719039946663703 x[2,4] >= 0
 findWorstP[1,3]: z + 0.0555586421467859 cashProportion[1]
   - 0.0555586421467859 cashProportion[3] + 0.00350019445524751 x[1,1]
   + 0.3729096060892271 x[1,2] + 0.2961275626423689 x[1,3]
   + 0.2719039946663703 x[1,4] - 0.00350019445524751 x[3,1]
   - 0.3729096060892271 x[3,2] - 0.2961275626423689 x[3,3]
   - 0.2719039946663703 x[3,4] >= 0
 findWorstP[1,4]: z + 0.0555586421467859 cashProportion[1]
   - 0.0555586421467859 cashProportion[4] + 0.00350019445524751 x[1,1]
   + 0.3729096060892271 x[1,2] + 0.2961275626423689 x[1,3]
   + 0.2719039946663703 x[1,4] - 0.00350019445524751 x[4,1]
   - 0.3729096060892271 x[4,2] - 0.2961275626423689 x[4,3]
   - 0.2719039946663703 x[4,4] >= 0
 findWorstP[1,5]: z + 0.0555586421467859 cashProportion[1]
   - 0.0555586421467859 cashProportion[5] + 0.00350019445524751 x[1,1]
   + 0.3729096060892271 x[1,2] + 0.2961275626423689 x[1,3]
   + 0.2719039946663703 x[1,4] - 0.00350019445524751 x[5,1]
   - 0.3729096060892271 x[5,2] - 0.2961275626423689 x[5,3]
   - 0.2719039946663703 x[5,4] >= 0
 findWorstP[2,1]: z - 0.0658111220796315 cashProportion[1]
   + 0.0658111220796315 cashProportion[2] - 0.5222770648239552 x[1,1]
   - 0.0629154327081277 x[1,2] - 0.1570253372820007 x[1,3]
   - 0.191971043106285 x[1,4] + 0.5222770648239552 x[2,1]
   + 0.0629154327081277 x[2,2] + 0.1570253372820007 x[2,3]
   + 0.191971043106285 x[2,4] >= 0
 findWorstP[2,3]: z + 0.0658111220796315 cashProportion[2]
   - 0.0658111220796315 cashProportion[3] + 0.5222770648239552 x[2,1]
   + 0.0629154327081277 x[2,2] + 0.1570253372820007 x[2,3]
   + 0.191971043106285 x[2,4] - 0.5222770648239552 x[3,1]
   - 0.0629154327081277 x[3,2] - 0.1570253372820007 x[3,3]
   - 0.191971043106285 x[3,4] >= 0
 findWorstP[2,4]: z + 0.0658111220796315 cashProportion[2]
   - 0.0658111220796315 cashProportion[4] + 0.5222770648239552 x[2,1]
   + 0.0629154327081277 x[2,2] + 0.1570253372820007 x[2,3]
   + 0.191971043106285 x[2,4] - 0.5222770648239552 x[4,1]
   - 0.0629154327081277 x[4,2] - 0.1570253372820007 x[4,3]
   - 0.191971043106285 x[4,4] >= 0
 findWorstP[2,5]: z + 0.0658111220796315 cashProportion[2]
   - 0.0658111220796315 cashProportion[5] + 0.5222770648239552 x[2,1]
   + 0.0629154327081277 x[2,2] + 0.1570253372820007 x[2,3]
   + 0.191971043106285 x[2,4] - 0.5222770648239552 x[5,1]
   - 0.0629154327081277 x[5,2] - 0.1570253372820007 x[5,3]
   - 0.191971043106285 x[5,4] >= 0
 findWorstP[3,1]: z - 0.0351778238998136 cashProportion[1]
   + 0.0351778238998136 cashProportion[3] - 0.1662152179266191 x[1,1]
   - 0.2057550919900095 x[1,2] - 0.3370387307841137 x[1,3]
   - 0.2558131353994442 x[1,4] + 0.1662152179266191 x[3,1]
   + 0.2057550919900095 x[3,2] + 0.3370387307841137 x[3,3]
   + 0.2558131353994442 x[3,4] >= 0
 findWorstP[3,2]: z - 0.0351778238998136 cashProportion[2]
   + 0.0351778238998136 cashProportion[3] - 0.1662152179266191 x[2,1]
   - 0.2057550919900095 x[2,2] - 0.3370387307841137 x[2,3]
   - 0.2558131353994442 x[2,4] + 0.1662152179266191 x[3,1]
   + 0.2057550919900095 x[3,2] + 0.3370387307841137 x[3,3]
   + 0.2558131353994442 x[3,4] >= 0
 findWorstP[3,4]: z + 0.0351778238998136 cashProportion[3]
   - 0.0351778238998136 cashProportion[4] + 0.1662152179266191 x[3,1]
   + 0.2057550919900095 x[3,2] + 0.3370387307841137 x[3,3]
   + 0.2558131353994442 x[3,4] - 0.1662152179266191 x[4,1]
   - 0.2057550919900095 x[4,2] - 0.3370387307841137 x[4,3]
   - 0.2558131353994442 x[4,4] >= 0
 findWorstP[3,5]: z + 0.0351778238998136 cashProportion[3]
   - 0.0351778238998136 cashProportion[5] + 0.1662152179266191 x[3,1]
   + 0.2057550919900095 x[3,2] + 0.3370387307841137 x[3,3]
   + 0.2558131353994442 x[3,4] - 0.1662152179266191 x[5,1]
   - 0.2057550919900095 x[5,2] - 0.3370387307841137 x[5,3]
   - 0.2558131353994442 x[5,4] >= 0
 findWorstP[4,1]: z - 0.0469439489249836 cashProportion[1]
   + 0.0469439489249836 cashProportion[4] - 0.3615622946202235 x[1,1]
   - 0.2121397051920008 x[1,2] - 0.1754764810815886 x[1,3]
   - 0.2038775701812037 x[1,4] + 0.3615622946202235 x[4,1]
   + 0.2121397051920008 x[4,2] + 0.1754764810815886 x[4,3]
   + 0.2038775701812037 x[4,4] >= 0
 findWorstP[4,2]: z - 0.0469439489249836 cashProportion[2]
   + 0.0469439489249836 cashProportion[4] - 0.3615622946202235 x[2,1]
   - 0.2121397051920008 x[2,2] - 0.1754764810815886 x[2,3]
   - 0.2038775701812037 x[2,4] + 0.3615622946202235 x[4,1]
   + 0.2121397051920008 x[4,2] + 0.1754764810815886 x[4,3]
   + 0.2038775701812037 x[4,4] >= 0
 findWorstP[4,3]: z - 0.0469439489249836 cashProportion[3]
   + 0.0469439489249836 cashProportion[4] - 0.3615622946202235 x[3,1]
   - 0.2121397051920008 x[3,2] - 0.1754764810815886 x[3,3]
   - 0.2038775701812037 x[3,4] + 0.3615622946202235 x[4,1]
   + 0.2121397051920008 x[4,2] + 0.1754764810815886 x[4,3]
   + 0.2038775701812037 x[4,4] >= 0
 findWorstP[4,5]: z + 0.0469439489249836 cashProportion[4]
   - 0.0469439489249836 cashProportion[5] + 0.3615622946202235 x[4,1]
   + 0.2121397051920008 x[4,2] + 0.1754764810815886 x[4,3]
   + 0.2038775701812037 x[4,4] - 0.3615622946202235 x[5,1]
   - 0.2121397051920008 x[5,2] - 0.1754764810815886 x[5,3]
   - 0.2038775701812037 x[5,4] >= 0
 findWorstP[5,1]: z - 0.0481139337952271 cashProportion[1]
   + 0.0481139337952271 cashProportion[5] - 0.1372690531177829 x[1,1]
   - 0.4496247113163973 x[1,2] - 0.1383275596612779 x[1,3]
   - 0.2266647421093149 x[1,4] + 0.1372690531177829 x[5,1]
   + 0.4496247113163973 x[5,2] + 0.1383275596612779 x[5,3]
   + 0.2266647421093149 x[5,4] >= 0
 findWorstP[5,2]: z - 0.0481139337952271 cashProportion[2]
   + 0.0481139337952271 cashProportion[5] - 0.1372690531177829 x[2,1]
   - 0.4496247113163973 x[2,2] - 0.1383275596612779 x[2,3]
   - 0.2266647421093149 x[2,4] + 0.1372690531177829 x[5,1]
   + 0.4496247113163973 x[5,2] + 0.1383275596612779 x[5,3]
   + 0.2266647421093149 x[5,4] >= 0
 findWorstP[5,3]: z - 0.0481139337952271 cashProportion[3]
   + 0.0481139337952271 cashProportion[5] - 0.1372690531177829 x[3,1]
   - 0.4496247113163973 x[3,2] - 0.1383275596612779 x[3,3]
   - 0.2266647421093149 x[3,4] + 0.1372690531177829 x[5,1]
   + 0.4496247113163973 x[5,2] + 0.1383275596612779 x[5,3]
   + 0.2266647421093149 x[5,4] >= 0
 findWorstP[5,4]: z - 0.0481139337952271 cashProportion[4]
   + 0.0481139337952271 cashProportion[5] - 0.1372690531177829 x[4,1]
   - 0.4496247113163973 x[4,2] - 0.1383275596612779 x[4,3]
   - 0.2266647421093149 x[4,4] + 0.1372690531177829 x[5,1]
   + 0.4496247113163973 x[5,2] + 0.1383275596612779 x[5,3]
   + 0.2266647421093149 x[5,4] >= 0
Bounds
 z <= 1
 -infinity <= cashProportion[1] <= 1
 -infinity <= cashProportion[2] <= 1
 -infinity <= cashProportion[3] <= 1
 -infinity <= cashProportion[4] <= 1
 -infinity <= cashProportion[5] <= 1
Binaries
 x[1,1] x[1,2] x[1,3] x[1,4] x[2,1] x[2,2] x[2,3] x[2,4] x[3,1] x[3,2]
 x[3,3] x[3,4] x[4,1] x[4,2] x[4,3] x[4,4] x[5,1] x[5,2] x[5,3] x[5,4]
End
