data/mps_files/pEFS/84_1.mps
NAME foo
ROWS
 N  OBJ
 E  allocateEach[1]
 E  allocateEach[2]
 E  allocateEach[3]
 E  allocateEach[4]
 E  allocateAllCash
 G  findWorstP[1,2]
 G  findWorstP[1,3]
 G  findWorstP[1,4]
 G  findWorstP[1,5]
 G  findWorstP[2,1]
 G  findWorstP[2,3]
 G  findWorstP[2,4]
 G  findWorstP[2,5]
 G  findWorstP[3,1]
 G  findWorstP[3,2]
 G  findWorstP[3,4]
 G  findWorstP[3,5]
 G  findWorstP[4,1]
 G  findWorstP[4,2]
 G  findWorstP[4,3]
 G  findWorstP[4,5]
 G  findWorstP[5,1]
 G  findWorstP[5,2]
 G  findWorstP[5,3]
 G  findWorstP[5,4]
COLUMNS
    z         OBJ       1
    z         findWorstP[1,2]  1
    z         findWorstP[1,3]  1
    z         findWorstP[1,4]  1
    z         findWorstP[1,5]  1
    z         findWorstP[2,1]  1
    z         findWorstP[2,3]  1
    z         findWorstP[2,4]  1
    z         findWorstP[2,5]  1
    z         findWorstP[3,1]  1
    z         findWorstP[3,2]  1
    z         findWorstP[3,4]  1
    z         findWorstP[3,5]  1
    z         findWorstP[4,1]  1
    z         findWorstP[4,2]  1
    z         findWorstP[4,3]  1
    z         findWorstP[4,5]  1
    z         findWorstP[5,1]  1
    z         findWorstP[5,2]  1
    z         findWorstP[5,3]  1
    z         findWorstP[5,4]  1
    cashProportion[1]  allocateAllCash  1
    cashProportion[1]  findWorstP[1,2]  5.5558642146785922e-02
    cashProportion[1]  findWorstP[1,3]  5.5558642146785922e-02
    cashProportion[1]  findWorstP[1,4]  5.5558642146785922e-02
    cashProportion[1]  findWorstP[1,5]  5.5558642146785922e-02
    cashProportion[1]  findWorstP[2,1]  -6.5811122079631454e-02
    cashProportion[1]  findWorstP[3,1]  -3.5177823899813561e-02
    cashProportion[1]  findWorstP[4,1]  -4.6943948924983575e-02
    cashProportion[1]  findWorstP[5,1]  -4.8113933795227104e-02
    cashProportion[2]  allocateAllCash  1
    cashProportion[2]  findWorstP[1,2]  -5.5558642146785922e-02
    cashProportion[2]  findWorstP[2,1]  6.5811122079631454e-02
    cashProportion[2]  findWorstP[2,3]  6.5811122079631454e-02
    cashProportion[2]  findWorstP[2,4]  6.5811122079631454e-02
    cashProportion[2]  findWorstP[2,5]  6.5811122079631454e-02
    cashProportion[2]  findWorstP[3,2]  -3.5177823899813561e-02
    cashProportion[2]  findWorstP[4,2]  -4.6943948924983575e-02
    cashProportion[2]  findWorstP[5,2]  -4.8113933795227104e-02
    cashProportion[3]  allocateAllCash  1
    cashProportion[3]  findWorstP[1,3]  -5.5558642146785922e-02
    cashProportion[3]  findWorstP[2,3]  -6.5811122079631454e-02
    cashProportion[3]  findWorstP[3,1]  3.5177823899813561e-02
    cashProportion[3]  findWorstP[3,2]  3.5177823899813561e-02
    cashProportion[3]  findWorstP[3,4]  3.5177823899813561e-02
    cashProportion[3]  findWorstP[3,5]  3.5177823899813561e-02
    cashProportion[3]  findWorstP[4,3]  -4.6943948924983575e-02
    cashProportion[3]  findWorstP[5,3]  -4.8113933795227104e-02
    cashProportion[4]  allocateAllCash  1
    cashProportion[4]  findWorstP[1,4]  -5.5558642146785922e-02
    cashProportion[4]  findWorstP[2,4]  -6.5811122079631454e-02
    cashProportion[4]  findWorstP[3,4]  -3.5177823899813561e-02
    cashProportion[4]  findWorstP[4,1]  4.6943948924983575e-02
    cashProportion[4]  findWorstP[4,2]  4.6943948924983575e-02
    cashProportion[4]  findWorstP[4,3]  4.6943948924983575e-02
    cashProportion[4]  findWorstP[4,5]  4.6943948924983575e-02
    cashProportion[4]  findWorstP[5,4]  -4.8113933795227104e-02
    cashProportion[5]  allocateAllCash  1
    cashProportion[5]  findWorstP[1,5]  -5.5558642146785922e-02
    cashProportion[5]  findWorstP[2,5]  -6.5811122079631454e-02
    cashProportion[5]  findWorstP[3,5]  -3.5177823899813561e-02
    cashProportion[5]  findWorstP[4,5]  -4.6943948924983575e-02
    cashProportion[5]  findWorstP[5,1]  4.8113933795227104e-02
    cashProportion[5]  findWorstP[5,2]  4.8113933795227104e-02
    cashProportion[5]  findWorstP[5,3]  4.8113933795227104e-02
    cashProportion[5]  findWorstP[5,4]  4.8113933795227104e-02
    MARKER    'MARKER'                 'INTORG'
    x[1,1]    allocateEach[1]  1
    x[1,1]    findWorstP[1,2]  3.5001944552475127e-03
    x[1,1]    findWorstP[1,3]  3.5001944552475127e-03
    x[1,1]    findWorstP[1,4]  3.5001944552475127e-03
    x[1,1]    findWorstP[1,5]  3.5001944552475127e-03
    x[1,1]    findWorstP[2,1]  -5.2227706482395519e-01
    x[1,1]    findWorstP[3,1]  -1.6621521792661906e-01
    x[1,1]    findWorstP[4,1]  -3.6156229462022349e-01
    x[1,1]    findWorstP[5,1]  -1.3726905311778292e-01
    x[1,2]    allocateEach[2]  1
    x[1,2]    findWorstP[1,2]  3.7290960608922707e-01
    x[1,2]    findWorstP[1,3]  3.7290960608922707e-01
    x[1,2]    findWorstP[1,4]  3.7290960608922707e-01
    x[1,2]    findWorstP[1,5]  3.7290960608922707e-01
    x[1,2]    findWorstP[2,1]  -6.2915432708127675e-02
    x[1,2]    findWorstP[3,1]  -2.0575509199000949e-01
    x[1,2]    findWorstP[4,1]  -2.1213970519200079e-01
    x[1,2]    findWorstP[5,1]  -4.4962471131639731e-01
    x[1,3]    allocateEach[3]  1
    x[1,3]    findWorstP[1,2]  2.9612756264236895e-01
    x[1,3]    findWorstP[1,3]  2.9612756264236895e-01
    x[1,3]    findWorstP[1,4]  2.9612756264236895e-01
    x[1,3]    findWorstP[1,5]  2.9612756264236895e-01
    x[1,3]    findWorstP[2,1]  -1.5702533728200066e-01
    x[1,3]    findWorstP[3,1]  -3.3703873078411367e-01
    x[1,3]    findWorstP[4,1]  -1.7547648108158861e-01
    x[1,3]    findWorstP[5,1]  -1.3832755966127791e-01
    x[1,4]    allocateEach[4]  1
    x[1,4]    findWorstP[1,2]  2.7190399466637027e-01
    x[1,4]    findWorstP[1,3]  2.7190399466637027e-01
    x[1,4]    findWorstP[1,4]  2.7190399466637027e-01
    x[1,4]    findWorstP[1,5]  2.7190399466637027e-01
    x[1,4]    findWorstP[2,1]  -1.9197104310628496e-01
    x[1,4]    findWorstP[3,1]  -2.5581313539944417e-01
    x[1,4]    findWorstP[4,1]  -2.0387757018120367e-01
    x[1,4]    findWorstP[5,1]  -2.2666474210931489e-01
    x[2,1]    allocateEach[1]  1
    x[2,1]    findWorstP[1,2]  -3.5001944552475127e-03
    x[2,1]    findWorstP[2,1]  5.2227706482395519e-01
    x[2,1]    findWorstP[2,3]  5.2227706482395519e-01
    x[2,1]    findWorstP[2,4]  5.2227706482395519e-01
    x[2,1]    findWorstP[2,5]  5.2227706482395519e-01
    x[2,1]    findWorstP[3,2]  -1.6621521792661906e-01
    x[2,1]    findWorstP[4,2]  -3.6156229462022349e-01
    x[2,1]    findWorstP[5,2]  -1.3726905311778292e-01
    x[2,2]    allocateEach[2]  1
    x[2,2]    findWorstP[1,2]  -3.7290960608922707e-01
    x[2,2]    findWorstP[2,1]  6.2915432708127675e-02
    x[2,2]    findWorstP[2,3]  6.2915432708127675e-02
    x[2,2]    findWorstP[2,4]  6.2915432708127675e-02
    x[2,2]    findWorstP[2,5]  6.2915432708127675e-02
    x[2,2]    findWorstP[3,2]  -2.0575509199000949e-01
    x[2,2]    findWorstP[4,2]  -2.1213970519200079e-01
    x[2,2]    findWorstP[5,2]  -4.4962471131639731e-01
    x[2,3]    allocateEach[3]  1
    x[2,3]    findWorstP[1,2]  -2.9612756264236895e-01
    x[2,3]    findWorstP[2,1]  1.5702533728200066e-01
    x[2,3]    findWorstP[2,3]  1.5702533728200066e-01
    x[2,3]    findWorstP[2,4]  1.5702533728200066e-01
    x[2,3]    findWorstP[2,5]  1.5702533728200066e-01
    x[2,3]    findWorstP[3,2]  -3.3703873078411367e-01
    x[2,3]    findWorstP[4,2]  -1.7547648108158861e-01
    x[2,3]    findWorstP[5,2]  -1.3832755966127791e-01
    x[2,4]    allocateEach[4]  1
    x[2,4]    findWorstP[1,2]  -2.7190399466637027e-01
    x[2,4]    findWorstP[2,1]  1.9197104310628496e-01
    x[2,4]    findWorstP[2,3]  1.9197104310628496e-01
    x[2,4]    findWorstP[2,4]  1.9197104310628496e-01
    x[2,4]    findWorstP[2,5]  1.9197104310628496e-01
    x[2,4]    findWorstP[3,2]  -2.5581313539944417e-01
    x[2,4]    findWorstP[4,2]  -2.0387757018120367e-01
    x[2,4]    findWorstP[5,2]  -2.2666474210931489e-01
    x[3,1]    allocateEach[1]  1
    x[3,1]    findWorstP[1,3]  -3.5001944552475127e-03
    x[3,1]    findWorstP[2,3]  -5.2227706482395519e-01
    x[3,1]    findWorstP[3,1]  1.6621521792661906e-01
    x[3,1]    findWorstP[3,2]  1.6621521792661906e-01
    x[3,1]    findWorstP[3,4]  1.6621521792661906e-01
    x[3,1]    findWorstP[3,5]  1.6621521792661906e-01
    x[3,1]    findWorstP[4,3]  -3.6156229462022349e-01
    x[3,1]    findWorstP[5,3]  -1.3726905311778292e-01
    x[3,2]    allocateEach[2]  1
    x[3,2]    findWorstP[1,3]  -3.7290960608922707e-01
    x[3,2]    findWorstP[2,3]  -6.2915432708127675e-02
    x[3,2]    findWorstP[3,1]  2.0575509199000949e-01
    x[3,2]    findWorstP[3,2]  2.0575509199000949e-01
    x[3,2]    findWorstP[3,4]  2.0575509199000949e-01
    x[3,2]    findWorstP[3,5]  2.0575509199000949e-01
    x[3,2]    findWorstP[4,3]  -2.1213970519200079e-01
    x[3,2]    findWorstP[5,3]  -4.4962471131639731e-01
    x[3,3]    allocateEach[3]  1
    x[3,3]    findWorstP[1,3]  -2.9612756264236895e-01
    x[3,3]    findWorstP[2,3]  -1.5702533728200066e-01
    x[3,3]    findWorstP[3,1]  3.3703873078411367e-01
    x[3,3]    findWorstP[3,2]  3.3703873078411367e-01
    x[3,3]    findWorstP[3,4]  3.3703873078411367e-01
    x[3,3]    findWorstP[3,5]  3.3703873078411367e-01
    x[3,3]    findWorstP[4,3]  -1.7547648108158861e-01
    x[3,3]    findWorstP[5,3]  -1.3832755966127791e-01
    x[3,4]    allocateEach[4]  1
    x[3,4]    findWorstP[1,3]  -2.7190399466637027e-01
    x[3,4]    findWorstP[2,3]  -1.9197104310628496e-01
    x[3,4]    findWorstP[3,1]  2.5581313539944417e-01
    x[3,4]    findWorstP[3,2]  2.5581313539944417e-01
    x[3,4]    findWorstP[3,4]  2.5581313539944417e-01
    x[3,4]    findWorstP[3,5]  2.5581313539944417e-01
    x[3,4]    findWorstP[4,3]  -2.0387757018120367e-01
    x[3,4]    findWorstP[5,3]  -2.2666474210931489e-01
    x[4,1]    allocateEach[1]  1
    x[4,1]    findWorstP[1,4]  -3.5001944552475127e-03
    x[4,1]    findWorstP[2,4]  -5.2227706482395519e-01
    x[4,1]    findWorstP[3,4]  -1.6621521792661906e-01
    x[4,1]    findWorstP[4,1]  3.6156229462022349e-01
    x[4,1]    findWorstP[4,2]  3.6156229462022349e-01
    x[4,1]    findWorstP[4,3]  3.6156229462022349e-01
    x[4,1]    findWorstP[4,5]  3.6156229462022349e-01
    x[4,1]    findWorstP[5,4]  -1.3726905311778292e-01
    x[4,2]    allocateEach[2]  1
    x[4,2]    findWorstP[1,4]  -3.7290960608922707e-01
    x[4,2]    findWorstP[2,4]  -6.2915432708127675e-02
    x[4,2]    findWorstP[3,4]  -2.0575509199000949e-01
    x[4,2]    findWorstP[4,1]  2.1213970519200079e-01
    x[4,2]    findWorstP[4,2]  2.1213970519200079e-01
    x[4,2]    findWorstP[4,3]  2.1213970519200079e-01
    x[4,2]    findWorstP[4,5]  2.1213970519200079e-01
    x[4,2]    findWorstP[5,4]  -4.4962471131639731e-01
    x[4,3]    allocateEach[3]  1
    x[4,3]    findWorstP[1,4]  -2.9612756264236895e-01
    x[4,3]    findWorstP[2,4]  -1.5702533728200066e-01
    x[4,3]    findWorstP[3,4]  -3.3703873078411367e-01
    x[4,3]    findWorstP[4,1]  1.7547648108158861e-01
    x[4,3]    findWorstP[4,2]  1.7547648108158861e-01
    x[4,3]    findWorstP[4,3]  1.7547648108158861e-01
    x[4,3]    findWorstP[4,5]  1.7547648108158861e-01
    x[4,3]    findWorstP[5,4]  -1.3832755966127791e-01
    x[4,4]    allocateEach[4]  1
    x[4,4]    findWorstP[1,4]  -2.7190399466637027e-01
    x[4,4]    findWorstP[2,4]  -1.9197104310628496e-01
    x[4,4]    findWorstP[3,4]  -2.5581313539944417e-01
    x[4,4]    findWorstP[4,1]  2.0387757018120367e-01
    x[4,4]    findWorstP[4,2]  2.0387757018120367e-01
    x[4,4]    findWorstP[4,3]  2.0387757018120367e-01
    x[4,4]    findWorstP[4,5]  2.0387757018120367e-01
    x[4,4]    findWorstP[5,4]  -2.2666474210931489e-01
    x[5,1]    allocateEach[1]  1
    x[5,1]    findWorstP[1,5]  -3.5001944552475127e-03
    x[5,1]    findWorstP[2,5]  -5.2227706482395519e-01
    x[5,1]    findWorstP[3,5]  -1.6621521792661906e-01
    x[5,1]    findWorstP[4,5]  -3.6156229462022349e-01
    x[5,1]    findWorstP[5,1]  1.3726905311778292e-01
    x[5,1]    findWorstP[5,2]  1.3726905311778292e-01
    x[5,1]    findWorstP[5,3]  1.3726905311778292e-01
    x[5,1]    findWorstP[5,4]  1.3726905311778292e-01
    x[5,2]    allocateEach[2]  1
    x[5,2]    findWorstP[1,5]  -3.7290960608922707e-01
    x[5,2]    findWorstP[2,5]  -6.2915432708127675e-02
    x[5,2]    findWorstP[3,5]  -2.0575509199000949e-01
    x[5,2]    findWorstP[4,5]  -2.1213970519200079e-01
    x[5,2]    findWorstP[5,1]  4.4962471131639731e-01
    x[5,2]    findWorstP[5,2]  4.4962471131639731e-01
    x[5,2]    findWorstP[5,3]  4.4962471131639731e-01
    x[5,2]    findWorstP[5,4]  4.4962471131639731e-01
    x[5,3]    allocateEach[3]  1
    x[5,3]    findWorstP[1,5]  -2.9612756264236895e-01
    x[5,3]    findWorstP[2,5]  -1.5702533728200066e-01
    x[5,3]    findWorstP[3,5]  -3.3703873078411367e-01
    x[5,3]    findWorstP[4,5]  -1.7547648108158861e-01
    x[5,3]    findWorstP[5,1]  1.3832755966127791e-01
    x[5,3]    findWorstP[5,2]  1.3832755966127791e-01
    x[5,3]    findWorstP[5,3]  1.3832755966127791e-01
    x[5,3]    findWorstP[5,4]  1.3832755966127791e-01
    x[5,4]    allocateEach[4]  1
    x[5,4]    findWorstP[1,5]  -2.7190399466637027e-01
    x[5,4]    findWorstP[2,5]  -1.9197104310628496e-01
    x[5,4]    findWorstP[3,5]  -2.5581313539944417e-01
    x[5,4]    findWorstP[4,5]  -2.0387757018120367e-01
    x[5,4]    findWorstP[5,1]  2.2666474210931489e-01
    x[5,4]    findWorstP[5,2]  2.2666474210931489e-01
    x[5,4]    findWorstP[5,3]  2.2666474210931489e-01
    x[5,4]    findWorstP[5,4]  2.2666474210931489e-01
    MARKER    'MARKER'                 'INTEND'
RHS
    RHS1      allocateEach[1]  1
    RHS1      allocateEach[2]  1
    RHS1      allocateEach[3]  1
    RHS1      allocateEach[4]  1
    RHS1      allocateAllCash  1
BOUNDS
 UP BND1      z         1
 MI BND1      cashProportion[1]
 UP BND1      cashProportion[1]  1
 MI BND1      cashProportion[2]
 UP BND1      cashProportion[2]  1
 MI BND1      cashProportion[3]
 UP BND1      cashProportion[3]  1
 MI BND1      cashProportion[4]
 UP BND1      cashProportion[4]  1
 MI BND1      cashProportion[5]
 UP BND1      cashProportion[5]  1
 BV BND1      x[1,1]  
 BV BND1      x[1,2]  
 BV BND1      x[1,3]  
 BV BND1      x[1,4]  
 BV BND1      x[2,1]  
 BV BND1      x[2,2]  
 BV BND1      x[2,3]  
 BV BND1      x[2,4]  
 BV BND1      x[3,1]  
 BV BND1      x[3,2]  
 BV BND1      x[3,3]  
 BV BND1      x[3,4]  
 BV BND1      x[4,1]  
 BV BND1      x[4,2]  
 BV BND1      x[4,3]  
 BV BND1      x[4,4]  
 BV BND1      x[5,1]  
 BV BND1      x[5,2]  
 BV BND1      x[5,3]  
 BV BND1      x[5,4]  
ENDATA
